* ENCODING=ISO-8859-1
NAME          CPLEX
ROWS
 N  obj1    
 G  c1      
 G  c2      
 G  c3      
 G  c4      
 G  c5      
 G  c6      
 G  c7      
 G  c8      
 G  c9      
 G  c10     
 G  c11     
 G  c12     
 G  c13     
 G  c14     
 G  c15     
 G  c16     
 G  c17     
 G  c18     
 G  c19     
 G  c20     
 G  c21     
 G  c22     
 G  c23     
 G  c24     
 G  c25     
 G  c26     
 G  c27     
 G  c28     
 G  c29     
 G  c30     
 G  c31     
 G  c32     
 G  c33     
 G  c34     
 G  c35     
 G  c36     
 G  c37     
 G  c38     
 G  c39     
 G  c40     
COLUMNS
    MARK0000  'MARKER'                 'INTORG'
    x1        obj1                            1
    x1        c14                           346
    x1        c33                           619
    x1        c36                           712
    x1        c40                           172
    x2        obj1                            1
    x2        c12                           273
    x2        c24                           202
    x2        c28                           880
    x2        c31                           764
    x3        obj1                            1
    x3        c10                           204
    x3        c19                           430
    x3        c27                           714
    x3        c32                           315
    x3        c35                           321
    x3        c37                           802
    x3        c40                           766
    x4        obj1                            1
    x4        c2                            184
    x4        c8                            651
    x4        c21                           988
    x4        c22                           196
    x4        c40                           423
    x5        obj1                            1
    x5        c13                           915
    x5        c17                           167
    x5        c21                           756
    x6        obj1                            1
    x6        c16                           839
    x6        c23                           712
    x6        c34                           345
    x7        obj1                            1
    x7        c3                            637
    x7        c11                           779
    x7        c17                           502
    x7        c40                           119
    x8        obj1                            1
    x8        c13                           273
    x8        c14                           782
    x8        c16                           799
    x8        c17                           959
    x8        c26                           340
    x9        obj1                            1
    x9        c23                           519
    x10       obj1                            1
    x10       c1                            396
    x10       c10                           882
    x10       c11                           757
    x10       c33                           745
    x10       c34                           174
    x11       obj1                            1
    x11       c20                           766
    x12       obj1                            1
    x12       c3                            357
    x12       c15                           406
    x12       c22                           181
    x12       c38                           276
    x13       obj1                            1
    x13       c4                            950
    x13       c11                           882
    x13       c28                           318
    x13       c29                           693
    x14       obj1                            1
    x14       c10                           805
    x14       c29                           716
    x15       obj1                            1
    x15       c7                            922
    x15       c15                           604
    x16       obj1                            1
    x16       c1                            485
    x16       c2                            418
    x16       c5                            926
    x16       c10                           734
    x16       c13                           557
    x16       c34                           743
    x17       obj1                            1
    x17       c8                            988
    x17       c16                           175
    x17       c28                           521
    x18       obj1                            1
    x18       c18                           960
    x18       c35                           932
    x19       obj1                            1
    x19       c2                            845
    x19       c4                            903
    x19       c9                            653
    x19       c12                           713
    x19       c13                           539
    x19       c32                           327
    x19       c38                           119
    x20       obj1                            1
    x20       c12                           394
    x20       c17                           334
    x20       c18                           563
    x20       c26                           832
    x21       obj1                            1
    x21       c5                            242
    x21       c10                           792
    x21       c12                           301
    x21       c18                           142
    x21       c19                           911
    x21       c22                           855
    x21       c27                           587
    x21       c32                           392
    x22       obj1                            1
    x22       c7                            489
    x22       c8                            361
    x22       c16                           154
    x22       c32                           780
    x23       obj1                            1
    x23       c13                           680
    x23       c26                           899
    x23       c28                           144
    x23       c31                           980
    x23       c34                           776
    x24       obj1                            1
    x24       c15                           477
    x24       c16                           157
    x25       obj1                            1
    x25       c4                            939
    x25       c6                            472
    x25       c9                            852
    x25       c19                           357
    x25       c23                           123
    x25       c28                           424
    x25       c30                           506
    x25       c33                           568
    x26       obj1                            1
    x26       c16                           300
    x26       c18                           961
    x26       c33                           891
    x26       c36                           973
    x27       obj1                            1
    x27       c2                            568
    x27       c4                            197
    x27       c14                           710
    x27       c15                           957
    x27       c19                           754
    x27       c37                           138
    x28       obj1                            1
    x28       c28                           214
    x28       c32                           350
    x28       c33                           806
    x29       obj1                            1
    x29       c1                            116
    x29       c3                            661
    x29       c12                           648
    x29       c25                           833
    x29       c36                           473
    x30       obj1                            1
    x30       c1                            235
    x30       c11                           612
    x30       c31                           789
    x31       obj1                            1
    x31       c8                            593
    x31       c9                            491
    x31       c32                           203
    x31       c39                           495
    x32       obj1                            1
    x32       c3                            690
    x32       c14                           848
    x32       c39                           403
    x32       c40                           973
    x33       obj1                            1
    x33       c29                           657
    x34       obj1                            1
    x34       c12                           108
    x34       c15                           499
    x34       c33                           456
    x35       obj1                            1
    x35       c26                           821
    x35       c34                           672
    x35       c35                           716
    x36       obj1                            1
    x36       c4                            911
    x36       c15                           486
    x36       c17                           834
    x36       c26                           499
    x37       obj1                            1
    x37       c15                           426
    x37       c21                           653
    x37       c37                           874
    x38       obj1                            1
    x38       c32                           628
    x38       c40                           502
    x39       obj1                            1
    x39       c31                           697
    x40       obj1                            1
    x40       c12                           841
    x40       c39                           679
    x41       obj1                            1
    x41       c2                            702
    x41       c5                            323
    x41       c11                           676
    x41       c16                           239
    x42       obj1                            1
    x42       c14                           420
    x42       c20                           280
    x42       c29                           162
    x42       c37                           798
    x42       c40                           277
    x43       obj1                            1
    x43       c10                           462
    x43       c13                           908
    x43       c22                           133
    x43       c30                           862
    x43       c35                           629
    x43       c40                           261
    x44       obj1                            1
    x44       c14                           246
    x44       c17                           993
    x44       c33                           182
    x45       obj1                            1
    x45       c13                           172
    x45       c16                           758
    x45       c17                           585
    x46       obj1                            1
    x46       c7                            753
    x46       c12                           443
    x47       obj1                            1
    x47       c1                            869
    x47       c9                            634
    x47       c11                           114
    x47       c20                           430
    x48       obj1                            1
    x48       c8                            596
    x48       c11                           849
    x48       c14                           906
    x48       c15                           101
    x49       obj1                            1
    x49       c1                            552
    x49       c10                           201
    x49       c12                           255
    x49       c16                           669
    x49       c21                           864
    x49       c33                           282
    x49       c40                           577
    x50       obj1                            1
    x50       c6                            549
    x50       c12                           205
    x50       c24                           764
    x50       c26                           929
    x50       c34                           263
    x50       c37                           420
    x50       c40                           330
    x51       obj1                            1
    x51       c14                           436
    x51       c22                           277
    x51       c33                           805
    x51       c35                           873
    x52       obj1                            1
    x52       c11                           133
    x52       c12                           239
    x52       c23                           480
    x53       obj1                            1
    x53       c2                            257
    x53       c28                           948
    x53       c32                           307
    x53       c36                           733
    x54       obj1                            1
    x54       c16                           816
    x54       c31                           314
    x55       obj1                            1
    x55       c3                            942
    x55       c25                           860
    x55       c30                           798
    x55       c31                           537
    x55       c38                           467
    x56       obj1                            1
    x56       c36                           322
    x57       obj1                            1
    x57       c15                           716
    x57       c30                           285
    x58       obj1                            1
    x58       c1                            567
    x58       c9                            816
    x58       c10                           868
    x58       c28                           735
    x58       c39                           789
    x59       obj1                            1
    x59       c7                            374
    x59       c11                           465
    x59       c13                           909
    x59       c17                           878
    x59       c35                           414
    x60       obj1                            1
    x60       c15                           168
    x60       c16                           372
    x61       obj1                            1
    x61       c1                            525
    x61       c2                            385
    x61       c5                            586
    x61       c7                            213
    x61       c15                           807
    x61       c32                           482
    x61       c36                           367
    x62       obj1                            1
    x62       c3                            567
    x62       c4                            880
    x62       c8                            974
    x62       c24                           809
    x63       obj1                            1
    x63       c6                            658
    x63       c10                           556
    x63       c23                           634
    x63       c37                           568
    x63       c40                           334
    x64       obj1                            1
    x64       c20                           508
    x64       c22                           376
    x65       obj1                            1
    x65       c17                           951
    x65       c25                           848
    x65       c32                           807
    x66       obj1                            1
    x66       c26                           158
    x66       c35                           517
    x67       obj1                            1
    x67       c3                            943
    x67       c14                           333
    x67       c25                           302
    x67       c29                           434
    x67       c33                           996
    x68       obj1                            1
    x68       c15                           516
    x68       c24                           924
    x68       c36                           895
    x69       obj1                            1
    x69       c7                            722
    x69       c27                           567
    x70       obj1                            1
    x70       c19                           623
    x70       c31                           223
    x70       c34                           906
    x71       obj1                            1
    x71       c3                            262
    x71       c10                           341
    x71       c11                           931
    x71       c17                           494
    x71       c34                           287
    x72       obj1                            1
    x72       c1                            596
    x72       c4                            780
    x72       c21                           723
    x73       obj1                            1
    x73       c6                            694
    x73       c30                           424
    x73       c36                           648
    x74       obj1                            1
    x74       c38                           711
    x75       obj1                            1
    x75       c9                            497
    x75       c10                           801
    x75       c11                           204
    x75       c22                           444
    x75       c25                           524
    x75       c27                           322
    x75       c34                           603
    x75       c36                           303
    x75       c39                           588
    x76       obj1                            1
    x76       c6                            396
    x76       c8                            179
    x76       c9                            974
    x76       c10                           159
    x76       c14                           304
    x77       obj1                            1
    x77       c9                            623
    x77       c24                           250
    x77       c26                           387
    x77       c28                           979
    x77       c34                           593
    x77       c35                           641
    x78       obj1                            1
    x78       c14                           340
    x78       c17                           177
    x78       c18                           241
    x78       c21                           262
    x78       c22                           908
    x78       c28                           385
    x78       c34                           570
    x78       c39                           812
    x79       obj1                            1
    x79       c6                            591
    x79       c11                           623
    x79       c36                           253
    x80       obj1                            1
    x80       c14                           494
    x80       c16                           226
    x80       c29                           349
    MARK0001  'MARKER'                 'INTEND'
RHS
    rhs       c1                           2171
    rhs       c2                           1680
    rhs       c3                           2530
    rhs       c4                           2780
    rhs       c5                           1039
    rhs       c6                           1680
    rhs       c7                           1737
    rhs       c8                           2171
    rhs       c9                           2770
    rhs       c10                          3403
    rhs       c11                          3513
    rhs       c12                          2210
    rhs       c13                          2477
    rhs       c14                          3083
    rhs       c15                          3082
    rhs       c16                          2752
    rhs       c17                          3437
    rhs       c18                          1434
    rhs       c19                          1538
    rhs       c20                           992
    rhs       c21                          2123
    rhs       c22                          1685
    rhs       c23                          1234
    rhs       c24                          1475
    rhs       c25                          1684
    rhs       c26                          2433
    rhs       c27                          1095
    rhs       c28                          2774
    rhs       c29                          1506
    rhs       c30                          1438
    rhs       c31                          2152
    rhs       c32                          2296
    rhs       c33                          3175
    rhs       c34                          2966
    rhs       c35                          2522
    rhs       c36                          2840
    rhs       c37                          1800
    rhs       c38                           787
    rhs       c39                          1883
    rhs       c40                          2367
BOUNDS
 LI bnd       x1        0
 LI bnd       x2        0
 LI bnd       x3        0
 LI bnd       x4        0
 LI bnd       x5        0
 LI bnd       x6        0
 LI bnd       x7        0
 LI bnd       x8        0
 LI bnd       x9        0
 LI bnd       x10       0
 LI bnd       x11       0
 LI bnd       x12       0
 LI bnd       x13       0
 LI bnd       x14       0
 LI bnd       x15       0
 LI bnd       x16       0
 LI bnd       x17       0
 LI bnd       x18       0
 LI bnd       x19       0
 LI bnd       x20       0
 LI bnd       x21       0
 LI bnd       x22       0
 LI bnd       x23       0
 LI bnd       x24       0
 LI bnd       x25       0
 LI bnd       x26       0
 LI bnd       x27       0
 LI bnd       x28       0
 LI bnd       x29       0
 LI bnd       x30       0
 LI bnd       x31       0
 LI bnd       x32       0
 LI bnd       x33       0
 LI bnd       x34       0
 LI bnd       x35       0
 LI bnd       x36       0
 LI bnd       x37       0
 LI bnd       x38       0
 LI bnd       x39       0
 LI bnd       x40       0
 LI bnd       x41       0
 LI bnd       x42       0
 LI bnd       x43       0
 LI bnd       x44       0
 LI bnd       x45       0
 LI bnd       x46       0
 LI bnd       x47       0
 LI bnd       x48       0
 LI bnd       x49       0
 LI bnd       x50       0
 LI bnd       x51       0
 LI bnd       x52       0
 LI bnd       x53       0
 LI bnd       x54       0
 LI bnd       x55       0
 LI bnd       x56       0
 LI bnd       x57       0
 LI bnd       x58       0
 LI bnd       x59       0
 LI bnd       x60       0
 LI bnd       x61       0
 LI bnd       x62       0
 LI bnd       x63       0
 LI bnd       x64       0
 LI bnd       x65       0
 LI bnd       x66       0
 LI bnd       x67       0
 LI bnd       x68       0
 LI bnd       x69       0
 LI bnd       x70       0
 LI bnd       x71       0
 LI bnd       x72       0
 LI bnd       x73       0
 LI bnd       x74       0
 LI bnd       x75       0
 LI bnd       x76       0
 LI bnd       x77       0
 LI bnd       x78       0
 LI bnd       x79       0
 LI bnd       x80       0
ENDATA
